(set-option :produce-models true)
(set-logic QF_UF)
(declare-fun p17() Bool)
(declare-fun p12() Bool)
(declare-fun p0() Bool)
(declare-fun p8() Bool)
(declare-fun p4() Bool)
(declare-fun p7() Bool)
(declare-fun p23() Bool)
(declare-fun p11() Bool)
(declare-fun p15() Bool)
(declare-fun p21() Bool)
(declare-fun p3() Bool)
(declare-fun p18() Bool)
(declare-fun p14() Bool)
(declare-fun p22() Bool)
(declare-fun p13() Bool)
(declare-fun p9() Bool)
(declare-fun p2() Bool)
(declare-fun p6() Bool)
(declare-fun p24() Bool)
(declare-fun p19() Bool)
(declare-fun p20() Bool)
(declare-fun p1() Bool)
(declare-fun p10() Bool)
(declare-fun p5() Bool)
(declare-fun p16() Bool)
(assert
(and (or p17 p12 p0) (or (not p8) p4 p7) (or (not p17) (not p17) (not p23)) (or (not p11) p15 p12) (or (not p21) (not p3) (not p15)) (or p18 (not p14) p22) (or p13 (not p12) p4) (or p9 (not p9) p2) (or (not p6) (not p7) p4) (or (not p12) (not p21) (not p7)) (or p24 (not p9) (not p21)) (or (not p15) p7 p7) (or p8 (not p17) p23) (or p12 p13 (not p19)) (or p8 (not p0) (not p0)) (or p3 (not p4) p12) (or p12 (not p21) p24) (or (not p14) (not p24) p6) (or p4 (not p7) (not p2)) (or (not p9) (not p11) (not p20)) (or p1 p21 (not p7)) (or (not p23) p12 p1) (or (not p22) (not p17) p18) (or (not p1) (not p23) (not p19)) (or p22 (not p7) p11) (or p13 (not p14) p11) (or (not p15) (not p14) (not p24)) (or (not p17) (not p10) p18) (or (not p4) p0 p14) (or (not p5) (not p13) (not p22)) (or (not p20) (not p5) (not p3)) (or p23 p13 p9) (or p13 p20 p23) (or p12 p23 p23) (or (not p13) p7 p15) (or (not p4) (not p14) (not p1)) (or (not p6) p15 p20) (or p21 p4 p4) (or p16 p19 p4) (or (not p22) p21 (not p4)) (or p5 (not p3) (not p6)) (or (not p8) (not p20) (not p14)) (or (not p24) p17 p23) (or (not p18) p1 p0) (or (not p8) p8 p22) (or (not p6) (not p20) (not p0)) (or (not p1) (not p22) (not p5)) (or (not p12) (not p9) p3) (or p24 (not p10) (not p5)) (or (not p22) (not p14) p15) (or p11 (not p1) p6) (or (not p23) p1 p16) (or (not p8) (not p24) p7) (or (not p20) p14 p22) (or (not p1) (not p1) (not p20)) (or p0 (not p19) p4) (or p21 (not p1) (not p1)) (or p9 p24 p14) (or p16 p22 p4) (or (not p7) p15 p16) (or (not p10) (not p23) (not p14)) (or p4 p4 (not p13)) (or p15 p16 (not p24)) (or p11 p18 p18) (or (not p16) p19 (not p14)) (or p2 p21 (not p15)) (or (not p10) (not p1) (not p10)) (or p9 (not p24) (not p7)) (or (not p4) (not p21) (not p22)) (or (not p7) p0 (not p15)) (or p16 p15 (not p14)) (or (not p22) p9 p19) (or p17 (not p18) p12) (or (not p10) p12 p1) (or p0 p5 (not p7)) (or p16 (not p18) p15) (or (not p3) (not p4) (not p15)) (or (not p19) p24 p21) (or (not p24) (not p19) p6) (or (not p9) p19 (not p15)) (or p7 (not p14) (not p0)) (or (not p13) p20 p3) (or p23 (not p19) p19) (or (not p22) (not p3) p3) (or p12 (not p6) p22) (or p13 p24 p10) (or (not p18) (not p6) p3) (or p18 (not p21) p19) (or p12 p9 p6) (or p2 (not p20) (not p5)) (or (not p15) p4 p11) (or p24 (not p14) p11) (or p14 (not p20) p15) (or (not p23) p8 (not p6)) (or p18 p6 (not p21)) (or p20 p21 p19) (or p24 (not p14) (not p17)) (or (not p17) (not p6) p2) (or (not p9) p22 p8) (or p3 (not p18) (not p9)) (or (not p7) (not p19) (not p13)) (or (not p1) (not p9) (not p20)) (or p21 p7 (not p17)) (or (not p20) p14 p0) (or p22 (not p3) p17) (or p13 p0 p21) (or (not p17) (not p13) (not p6)))
)
(check-sat)
(get-model)
